0 67.0
1 75.0
2 74.0
3 77.0
4 69.0
5 64.0
6 82.0
7 77.0
8 76.0
9 68.0
10 84.0
11 81.0
12 85.0
13 82.0
14 72.0
15 71.0
16 75.0
17 77.0
18 68.0
19 70.0
20 81.0
21 72.0
22 76.0
23 65.0
24 75.0
25 83.0
26 78.0
27 81.0
28 74.0
29 69.0
30 86.0
31 82.0
32 77.0
33 75.0
34 85.0
35 87.0
36 93.0
37 87.0
38 81.0
39 82.0
40 84.0
41 91.0
42 76.0
43 74.0
44 88.0
45 81.0
46 83.0
47 78.0
48 71.0
49 66.0
50 76.0
51 68.0
52 72.0
53 69.0
54 67.0
55 63.0
56 73.0
57 71.0
58 68.0
59 70.0
60 61.0
61 59.0
62 62.0
63 65.0
64 54.0
65 59.0
66 70.0
67 72.0
68 69.0
69 77.0
70 66.0
71 72.0
72 82.0
73 79.0
74 84.0
75 83.0
76 78.0
77 80.0
78 86.0
79 80.0
80 85.0
81 86.0
82 82.0
83 89.0
84 73.0
85 71.0
86 70.0
87 73.0
88 69.0
89 74.0
90 73.0
91 77.0
92 76.0
93 82.0
94 78.0
95 80.0
96 72.0
97 74.0
98 87.0
99 78.0
100 85.0
101 74.0
102 75.0
103 73.0
104 86.0
105 79.0
106 88.0
107 83.0
108 88.0
109 90.0
110 84.0
111 92.0
112 75.0
113 81.0
114 79.0
115 83.0
116 83.0
117 89.0
118 72.0
119 74.0
120 72.0
121 80.0
122 79.0
123 82.0
124 74.0
125 69.0
126 68.0
127 63.0
128 62.0
129 54.0
130 70.0
131 67.0
132 83.0
133 80.0
134 70.0
135 69.0
136 73.0
137 75.0
138 72.0
139 74.0
140 85.0
141 76.0
142 80.0
143 69.0
144 61.0
145 69.0
146 76.0
147 79.0
148 78.0
149 73.0
150 65.0
151 67.0
152 74.0
153 75.0
154 82.0
155 81.0
156 72.0
157 84.0
158 66.0
159 82.0
160 69.0
161 73.0
162 61.0
163 71.0
164 67.0
165 75.0
166 62.0
167 60.0
168 76.0
169 71.0
170 74.0
171 66.0
172 76.0
173 73.0
174 84.0
175 86.0
176 89.0
177 90.0
178 84.0
179 83.0
180 78.0
181 75.0
182 85.0
183 84.0
184 77.0
185 79.0
186 93.0
187 88.0
188 86.0
189 90.0
190 83.0
191 92.0
192 87.0
193 84.0
194 70.0
195 69.0
196 82.0
197 84.0
198 79.0
199 91.0
200 77.0
201 93.0
202 74.0
203 78.0
204 66.0
205 63.0
206 81.0
207 80.0
208 80.0
209 82.0
210 84.0
211 69.0
212 69.0
213 71.0
214 71.0
215 88.0
216 77.0
217 79.0
218 73.0
219 64.0
220 83.0
221 72.0
222 62.0
223 72.0
224 66.0
225 74.0
226 68.0
227 66.0
228 75.0
229 70.0
230 83.0
231 87.0
232 74.0
233 83.0
234 78.0
235 63.0
236 70.0
237 72.0
238 59.0
239 76.0
240 69.0
241 77.0
242 72.0
243 75.0
244 68.0
245 63.0
246 69.0
247 65.0
248 60.0
249 58.0
250 68.0
251 70.0
252 84.0
253 78.0
254 72.0
255 73.0
256 75.0
257 82.0
258 74.0
259 72.0
260 86.0
261 79.0
262 81.0
263 76.0
264 50.0
265 58.0
266 65.0
267 68.0
268 67.0
269 62.0
270 62.0
271 64.0
272 71.0
273 72.0
274 79.0
275 78.0
276 65.0
277 77.0
278 59.0
279 75.0
280 62.0
281 66.0
282 55.0
283 65.0
284 61.0
285 69.0
286 56.0
287 54.0
288 61.0
289 57.0
290 64.0
291 62.0
292 66.0
293 68.0
294 73.0
295 75.0
296 82.0
297 83.0
298 78.0
299 77.0
300 64.0
301 71.0
302 70.0
303 74.0
304 68.0
305 65.0
306 78.0
307 83.0
308 72.0
309 80.0
310 74.0
311 77.0
312 80.0
313 74.0
314 68.0
315 69.0
316 80.0
317 87.0
318 68.0
319 80.0
320 74.0
321 90.0
322 68.0
323 72.0
324 56.0
325 63.0
326 74.0
327 78.0
328 75.0
329 72.0
330 77.0
331 72.0
332 59.0
333 69.0
334 66.0
335 81.0
336 69.0
337 67.0
338 69.0
339 62.0
340 79.0
341 74.0
342 51.0
343 61.0
344 63.0
345 71.0
346 61.0
347 59.0
348 63.0
349 68.0
350 75.0
351 83.0
352 68.0
353 71.0
354 70.0
355 65.0
356 58.0
357 68.0
358 53.0
359 68.0
360 65.0
361 60.0
362 70.0
363 62.0
364 66.0
365 63.0
366 69.0
367 65.0
368 75.0
369 73.0
370 70.0
371 72.0
372 67.0
373 65.0
374 68.0
375 71.0
376 60.0
377 65.0
378 70.0
379 72.0
380 69.0
381 77.0
382 66.0
383 72.0
384 84.0
385 79.0
386 82.0
387 74.0
388 84.0
389 81.0
390 81.0
391 83.0
392 86.0
393 87.0
394 81.0
395 80.0
396 86.0
397 83.0
398 93.0
399 92.0
400 85.0
401 87.0
402 89.0
403 84.0
404 82.0
405 86.0
406 79.0
407 88.0
408 80.0
409 76.0
410 83.0
411 81.0
412 85.0
413 87.0
414 73.0
415 75.0
416 82.0
417 83.0
418 78.0
419 77.0
420 79.0
421 86.0
422 85.0
423 89.0
424 83.0
425 80.0
426 80.0
427 85.0
428 74.0
429 82.0
430 76.0
431 79.0
432 67.0
433 65.0
434 72.0
435 75.0
436 69.0
437 74.0
438 74.0
439 71.0
440 78.0
441 77.0
442 76.0
443 78.0
444 75.0
445 82.0
446 74.0
447 78.0
448 77.0
449 74.0
450 66.0
451 76.0
452 67.0
453 73.0
454 72.0
455 68.0
456 82.0
457 84.0
458 86.0
459 94.0
460 81.0
461 87.0
462 83.0
463 78.0
464 80.0
465 84.0
466 82.0
467 91.0
468 82.0
469 87.0
470 75.0
471 83.0
472 83.0
473 86.0
474 72.0
475 82.0
476 79.0
477 85.0
478 85.0
479 81.0
480 71.0
481 68.0
482 73.0
483 72.0
484 67.0
485 69.0
486 79.0
487 73.0
488 78.0
489 79.0
490 75.0
491 82.0
492 62.0
493 60.0
494 59.0
495 62.0
496 58.0
497 63.0
498 71.0
499 75.0
500 74.0
501 80.0
502 76.0
503 78.0
504 78.0
505 75.0
506 61.0
507 60.0
508 73.0
509 75.0
510 67.0
511 79.0
512 65.0
513 81.0
514 62.0
515 66.0
516 69.0
517 66.0
518 84.0
519 83.0
520 83.0
521 85.0
522 78.0
523 63.0
524 63.0
525 65.0
526 65.0
527 82.0
528 82.0
529 76.0
530 70.0
531 71.0
532 82.0
533 89.0
534 63.0
535 75.0
536 69.0
537 85.0
538 63.0
539 67.0
540 62.0
541 69.0
542 80.0
543 84.0
544 81.0
545 78.0
546 77.0
547 72.0
548 59.0
549 69.0
550 66.0
551 81.0
552 50.0
553 48.0
554 55.0
555 58.0
556 52.0
557 57.0
558 69.0
559 66.0
560 73.0
561 72.0
562 71.0
563 73.0
564 66.0
565 73.0
566 65.0
567 69.0
568 68.0
569 65.0
570 64.0
571 74.0
572 65.0
573 71.0
574 70.0
575 66.0
576 68.0
577 72.0
578 76.0
579 82.0
580 61.0
581 63.0
582 69.0
583 54.0
584 58.0
585 60.0
586 62.0
587 79.0
588 72.0
589 67.0
590 53.0
591 63.0
592 59.0
593 74.0
594 55.0
595 65.0
596 74.0
597 80.0
598 76.0
599 72.0
600 68.0
601 70.0
602 83.0
603 74.0
604 81.0
605 70.0
606 76.0
607 74.0
608 87.0
609 80.0
610 89.0
611 84.0
612 72.0
613 74.0
614 68.0
615 76.0
616 59.0
617 65.0
618 78.0
619 82.0
620 82.0
621 88.0
622 71.0
623 73.0
624 69.0
625 71.0
626 65.0
627 56.0
628 75.0
629 64.0
630 58.0
631 68.0
632 62.0
633 70.0
634 64.0
635 62.0
636 73.0
637 68.0
638 81.0
639 85.0
640 72.0
641 81.0
642 79.0
643 64.0
644 71.0
645 73.0
646 60.0
647 77.0
648 72.0
649 70.0
650 72.0
651 65.0
652 82.0
653 77.0
654 53.0
655 63.0
656 65.0
657 73.0
658 63.0
659 61.0
660 64.0
661 69.0
662 76.0
663 84.0
664 69.0
665 72.0
666 78.0
667 73.0
668 66.0
669 76.0
670 61.0
671 76.0
672 66.0
673 68.0
674 70.0
675 78.0
676 65.0
677 71.0
678 85.0
679 80.0
680 82.0
681 86.0
682 84.0
683 93.0
684 81.0
685 86.0
686 74.0
687 82.0
688 82.0
689 85.0
690 65.0
691 75.0
692 72.0
693 78.0
694 78.0
695 74.0
696 69.0
697 73.0
698 77.0
699 83.0
700 62.0
701 64.0
702 76.0
703 61.0
704 65.0
705 67.0
706 69.0
707 86.0
708 80.0
709 75.0
710 61.0
711 71.0
712 67.0
713 82.0
714 50.0
715 60.0
716 69.0
717 75.0
718 71.0
719 67.0
720 76.0
721 84.0
722 83.0
723 86.0
724 78.0
725 73.0
726 91.0
727 86.0
728 85.0
729 77.0
730 93.0
731 90.0
732 94.0
733 91.0
734 81.0
735 80.0
736 84.0
737 86.0
738 77.0
739 79.0
740 90.0
741 81.0
742 85.0
743 74.0
744 73.0
745 81.0
746 76.0
747 79.0
748 72.0
749 67.0
750 84.0
751 80.0
752 75.0
753 73.0
754 83.0
755 85.0
756 91.0
757 85.0
758 79.0
759 80.0
760 82.0
761 89.0
762 74.0
763 72.0
764 86.0
765 79.0
766 81.0
767 76.0
768 88.0
769 83.0
770 93.0
771 85.0
772 89.0
773 86.0
774 84.0
775 80.0
776 90.0
777 88.0
778 85.0
779 87.0
780 78.0
781 76.0
782 79.0
783 82.0
784 71.0
785 76.0
786 87.0
787 89.0
788 86.0
789 94.0
790 83.0
791 89.0
792 82.0
793 79.0
794 84.0
795 83.0
796 78.0
797 80.0
798 86.0
799 80.0
800 85.0
801 86.0
802 82.0
803 89.0
804 73.0
805 71.0
806 70.0
807 73.0
808 69.0
809 74.0
810 73.0
811 77.0
812 76.0
813 82.0
814 78.0
815 80.0
816 73.0
817 75.0
818 88.0
819 79.0
820 86.0
821 75.0
822 76.0
823 74.0
824 87.0
825 80.0
826 89.0
827 84.0
828 89.0
829 91.0
830 85.0
831 93.0
832 76.0
833 82.0
834 80.0
835 84.0
836 84.0
837 90.0
838 73.0
839 75.0
840 70.0
841 78.0
842 77.0
843 80.0
844 72.0
845 67.0
846 85.0
847 80.0
848 79.0
849 71.0
850 87.0
851 84.0
852 83.0
853 80.0
854 70.0
855 69.0
856 73.0
857 75.0
858 73.0
859 75.0
860 86.0
861 77.0
862 81.0
863 70.0
864 67.0
865 75.0
866 65.0
867 68.0
868 68.0
869 63.0
870 73.0
871 76.0
872 66.0
873 74.0
874 80.0
875 76.0
876 75.0
877 78.0
878 70.0
879 63.0
880 75.0
881 70.0
882 82.0
883 77.0
884 82.0
885 74.0
886 85.0
887 82.0
888 73.0
889 76.0
890 81.0
891 76.0
892 67.0
893 67.0
894 75.0
895 67.0
896 83.0
897 80.0
898 75.0
899 72.0
900 76.0
901 73.0
902 78.0
903 77.0
904 74.0
905 76.0
906 85.0
907 81.0
908 86.0
909 83.0
910 72.0
911 72.0
912 71.0
913 70.0
914 74.0
915 78.0
916 75.0
917 77.0
918 67.0
919 69.0
920 82.0
921 73.0
922 75.0
923 64.0
924 68.0
925 61.0
926 74.0
927 76.0
928 81.0
929 78.0
930 72.0
931 63.0
932 67.0
933 71.0
934 76.0
935 65.0
936 78.0
937 86.0
938 81.0
939 84.0
940 77.0
941 72.0
942 86.0
943 82.0
944 77.0
945 75.0
946 85.0
947 87.0
948 84.0
949 78.0
950 72.0
951 73.0
952 75.0
953 82.0
954 75.0
955 73.0
956 87.0
957 80.0
958 82.0
959 77.0
960 78.0
961 86.0
962 76.0
963 79.0
964 79.0
965 74.0
966 81.0
967 84.0
968 74.0
969 82.0
970 84.0
971 80.0
972 79.0
973 82.0
974 75.0
975 68.0
976 80.0
977 75.0
978 89.0
979 85.0
980 83.0
981 81.0
982 86.0
983 88.0
984 84.0
985 87.0
986 85.0
987 81.0
988 75.0
989 74.0
990 82.0
991 80.0
992 90.0
993 86.0
994 83.0
995 85.0
996 91.0
997 85.0
998 87.0
999 88.0
1000 83.0
1001 90.0
1002 96.0
1003 92.0
1004 94.0
1005 88.0
1006 84.0
1007 83.0
1008 86.0
1009 87.0
1010 89.0
1011 92.0
1012 87.0
1013 94.0
1014 81.0
1015 79.0
1016 89.0
1017 82.0
1018 82.0
1019 77.0
1020 79.0
1021 72.0
1022 82.0
1023 80.0
1024 91.0
1025 87.0
1026 86.0
1027 79.0
1028 81.0
1029 84.0
1030 86.0
1031 81.0
1032 74.0
1033 69.0
1034 79.0
1035 71.0
1036 75.0
1037 72.0
1038 67.0
1039 63.0
1040 73.0
1041 71.0
1042 68.0
1043 70.0
1044 67.0
1045 65.0
1046 68.0
1047 71.0
1048 60.0
1049 65.0
1050 71.0
1051 73.0
1052 70.0
1053 78.0
1054 67.0
1055 73.0
1056 74.0
1057 69.0
1058 74.0
1059 66.0
1060 77.0
1061 74.0
1062 62.0
1063 65.0
1064 70.0
1065 65.0
1066 67.0
1067 67.0
1068 75.0
1069 67.0
1070 71.0
1071 68.0
1072 63.0
1073 60.0
1074 70.0
1075 66.0
1076 64.0
1077 62.0
1078 67.0
1079 69.0
1080 65.0
1081 68.0
1082 66.0
1083 62.0
1084 71.0
1085 70.0
1086 78.0
1087 76.0
1088 73.0
1089 69.0
1090 66.0
1091 68.0
1092 59.0
1093 57.0
1094 53.0
1095 56.0
1096 53.0
1097 58.0
1098 64.0
1099 64.0
1100 60.0
1101 58.0
1102 65.0
1103 64.0
1104 67.0
1105 70.0
1106 59.0
1107 58.0
1108 57.0
1109 62.0
1110 75.0
1111 77.0
1112 68.0
1113 76.0
1114 65.0
1115 71.0
1116 73.0
1117 70.0
1118 61.0
1119 63.0
1120 72.0
1121 68.0
1122 67.0
1123 75.0
1124 64.0
1125 63.0
1126 69.0
1127 75.0
1128 80.0
1129 77.0
1130 82.0
1131 81.0
1132 76.0
1133 78.0
1134 77.0
1135 71.0
1136 76.0
1137 77.0
1138 73.0
1139 80.0
1140 79.0
1141 77.0
1142 76.0
1143 79.0
1144 75.0
1145 80.0
1146 72.0
1147 76.0
1148 75.0
1149 81.0
1150 77.0
1151 79.0
1152 85.0
1153 82.0
1154 87.0
1155 86.0
1156 83.0
1157 85.0
1158 82.0
1159 78.0
1160 83.0
1161 80.0
1162 84.0
1163 84.0
1164 83.0
1165 82.0
1166 77.0
1167 81.0
1168 78.0
1169 80.0
1170 89.0
1171 83.0
1172 85.0
1173 86.0
1174 81.0
1175 88.0
1176 89.0
1177 85.0
1178 87.0
1179 81.0
1180 88.0
1181 87.0
1182 90.0
1183 91.0
1184 87.0
1185 90.0
1186 85.0
1187 92.0
1188 76.0
1189 74.0
1190 70.0
1191 73.0
1192 70.0
1193 75.0
1194 76.0
1195 76.0
1196 72.0
1197 70.0
1198 73.0
1199 72.0
1200 75.0
1201 78.0
1202 74.0
1203 73.0
1204 72.0
1205 77.0
1206 78.0
1207 82.0
1208 75.0
1209 81.0
1210 79.0
1211 81.0
1212 76.0
1213 80.0
1214 73.0
1215 77.0
1216 79.0
1217 82.0
1218 79.0
1219 85.0
1220 81.0
1221 80.0
1222 81.0
1223 83.0
1224 77.0
1225 79.0
1226 92.0
1227 83.0
1228 90.0
1229 79.0
1230 74.0
1231 72.0
1232 85.0
1233 78.0
1234 87.0
1235 82.0
1236 89.0
1237 91.0
1238 85.0
1239 93.0
1240 76.0
1241 82.0
1242 78.0
1243 82.0
1244 82.0
1245 88.0
1246 71.0
1247 73.0
1248 75.0
1249 77.0
1250 90.0
1251 81.0
1252 83.0
1253 72.0
1254 72.0
1255 65.0
1256 78.0
1257 80.0
1258 87.0
1259 84.0
1260 78.0
1261 69.0
1262 76.0
1263 80.0
1264 85.0
1265 74.0
1266 78.0
1267 76.0
1268 86.0
1269 79.0
1270 79.0
1271 74.0
1272 78.0
1273 71.0
1274 81.0
1275 79.0
1276 89.0
1277 85.0
1278 84.0
1279 77.0
1280 86.0
1281 89.0
1282 91.0
1283 86.0
1284 91.0
1285 93.0
1286 84.0
1287 92.0
1288 81.0
1289 87.0
1290 91.0
1291 88.0
1292 79.0
1293 81.0
1294 87.0
1295 83.0
1296 82.0
1297 90.0
1298 73.0
1299 72.0
1300 78.0
1301 84.0
1302 77.0
1303 81.0
1304 74.0
1305 80.0
1306 78.0
1307 80.0
1308 82.0
1309 86.0
1310 79.0
1311 83.0
1312 86.0
1313 89.0
1314 86.0
1315 92.0
1316 75.0
1317 74.0
1318 75.0
1319 77.0
1320 80.0
1321 88.0
1322 87.0
1323 90.0
1324 82.0
1325 77.0
1326 76.0
1327 71.0
1328 70.0
1329 62.0
1330 78.0
1331 75.0
1332 91.0
1333 88.0
1334 78.0
1335 77.0
1336 81.0
1337 83.0
1338 80.0
1339 82.0
1340 93.0
1341 84.0
1342 88.0
1343 77.0
1344 63.0
1345 71.0
1346 78.0
1347 81.0
1348 80.0
1349 75.0
1350 67.0
1351 69.0
1352 76.0
1353 84.0
1354 74.0
1355 86.0
1356 68.0
1357 71.0
1358 63.0
1359 73.0
1360 69.0
1361 64.0
1362 78.0
1363 73.0
1364 76.0
1365 68.0
1366 78.0
1367 75.0
1368 86.0
1369 88.0
1370 91.0
1371 86.0
1372 80.0
1373 77.0
1374 87.0
1375 79.0
1376 95.0
1377 90.0
1378 88.0
1379 85.0
1380 84.0
1381 81.0
1382 67.0
1383 66.0
1384 79.0
1385 81.0
1386 76.0
1387 88.0
1388 74.0
1389 71.0
1390 63.0
1391 60.0
1392 78.0
1393 77.0
1394 81.0
1395 66.0
1396 66.0
1397 68.0
1398 81.0
1399 83.0
1400 77.0
1401 68.0
1402 87.0
1403 76.0
1404 66.0
1405 76.0
1406 70.0
1407 72.0
1408 79.0
1409 74.0
1410 87.0
1411 78.0
1412 82.0
1413 67.0
1414 74.0
1415 63.0
1416 69.0
1417 77.0
1418 76.0
1419 79.0
1420 71.0
1421 66.0
1422 84.0
1423 79.0
1424 78.0
1425 70.0
1426 86.0
1427 83.0
1428 82.0
1429 79.0
1430 69.0
1431 68.0
1432 72.0
1433 74.0
1434 72.0
1435 74.0
1436 85.0
1437 76.0
1438 80.0
1439 69.0
1440 71.0
1441 79.0
1442 69.0
1443 72.0
1444 72.0
1445 67.0
1446 77.0
1447 80.0
1448 70.0
1449 78.0
1450 84.0
1451 80.0
1452 79.0
1453 82.0
1454 74.0
1455 67.0
1456 79.0
1457 74.0
1458 67.0
1459 62.0
1460 67.0
1461 59.0
1462 70.0
1463 67.0
1464 58.0
1465 61.0
1466 66.0
1467 61.0
1468 52.0
1469 52.0
1470 60.0
1471 52.0
1472 68.0
1473 65.0
1474 60.0
1475 57.0
1476 73.0
1477 70.0
1478 75.0
1479 74.0
1480 71.0
1481 73.0
1482 82.0
1483 78.0
1484 83.0
1485 80.0
1486 69.0
1487 69.0
1488 68.0
1489 67.0
1490 71.0
1491 75.0
1492 72.0
1493 74.0
1494 70.0
1495 72.0
1496 85.0
1497 76.0
1498 78.0
1499 67.0
1500 71.0
1501 64.0
1502 77.0
1503 79.0
1504 84.0
1505 81.0
1506 75.0
1507 66.0
1508 70.0
1509 74.0
1510 79.0
1511 68.0
1512 58.0
1513 66.0
1514 73.0
1515 76.0
1516 75.0
1517 70.0
1518 64.0
1519 66.0
1520 73.0
1521 81.0
1522 62.0
1523 74.0
1524 56.0
1525 59.0
1526 59.0
1527 69.0
1528 65.0
1529 60.0
1530 77.0
1531 85.0
1532 75.0
1533 78.0
1534 78.0
1535 73.0
1536 66.0
1537 69.0
1538 59.0
1539 67.0
1540 81.0
1541 77.0
1542 76.0
1543 79.0
1544 78.0
1545 71.0
1546 83.0
1547 78.0
1548 81.0
1549 83.0
1550 79.0
1551 82.0
1552 64.0
1553 67.0
1554 63.0
1555 65.0
1556 73.0
1557 74.0
1558 82.0
1559 81.0
1560 71.0
1561 83.0
1562 71.0
1563 67.0
1564 88.0
1565 84.0
1566 72.0
1567 84.0
1568 82.0
1569 66.0
1570 69.0
1571 85.0
1572 61.0
1573 71.0
1574 67.0
1575 60.0
1576 77.0
1577 70.0
1578 66.0
1579 76.0
1580 83.0
1581 66.0
1582 61.0
1583 78.0
1584 92.0
1585 87.0
1586 90.0
1587 82.0
1588 92.0
1589 89.0
1590 83.0
1591 85.0
1592 88.0
1593 83.0
1594 83.0
1595 80.0
1596 90.0
1597 82.0
1598 93.0
1599 88.0
1600 86.0
1601 83.0
1602 73.0
1603 68.0
1604 73.0
1605 65.0
1606 76.0
1607 73.0
1608 66.0
1609 69.0
1610 74.0
1611 69.0
1612 64.0
1613 64.0
1614 72.0
1615 64.0
1616 74.0
1617 71.0
1618 66.0
1619 63.0
1620 81.0
1621 83.0
1622 79.0
1623 82.0
1624 83.0
1625 86.0
1626 82.0
1627 84.0
1628 88.0
1629 89.0
1630 84.0
1631 83.0
1632 77.0
1633 74.0
1634 75.0
1635 75.0
1636 75.0
1637 75.0
1638 76.0
1639 73.0
1640 82.0
1641 85.0
1642 77.0
1643 74.0
1644 93.0
1645 88.0
1646 84.0
1647 81.0
1648 90.0
1649 87.0
1650 83.0
1651 78.0
1652 83.0
1653 85.0
1654 82.0
1655 80.0
1656 86.0
1657 83.0
1658 69.0
1659 68.0
1660 81.0
1661 83.0
1662 69.0
1663 81.0
1664 67.0
1665 64.0
1666 71.0
1667 68.0
1668 86.0
1669 85.0
1670 82.0
1671 67.0
1672 67.0
1673 69.0
1674 84.0
1675 81.0
1676 86.0
1677 85.0
1678 82.0
1679 84.0
1680 86.0
1681 82.0
1682 87.0
1683 84.0
1684 69.0
1685 69.0
1686 68.0
1687 67.0
1688 80.0
1689 84.0
1690 81.0
1691 83.0
1692 76.0
1693 88.0
1694 76.0
1695 72.0
1696 95.0
1697 91.0
1698 79.0
1699 91.0
1700 93.0
1701 77.0
1702 74.0
1703 90.0
1704 82.0
1705 79.0
1706 80.0
1707 80.0
1708 63.0
1709 63.0
1710 64.0
1711 61.0
1712 78.0
1713 81.0
1714 80.0
1715 77.0
1716 84.0
1717 69.0
1718 67.0
1719 71.0
1720 81.0
1721 85.0
1722 83.0
1723 68.0
1724 66.0
1725 85.0
1726 87.0
1727 68.0
1728 77.0
1729 79.0
1730 73.0
1731 64.0
1732 83.0
1733 72.0
1734 60.0
1735 70.0
1736 64.0
1737 66.0
1738 75.0
1739 70.0
1740 83.0
1741 74.0
1742 76.0
1743 61.0
1744 68.0
1745 57.0
1746 74.0
1747 76.0
1748 89.0
1749 80.0
1750 82.0
1751 71.0
1752 76.0
1753 69.0
1754 82.0
1755 84.0
1756 72.0
1757 69.0
1758 63.0
1759 54.0
1760 73.0
1761 77.0
1762 82.0
1763 71.0
1764 59.0
1765 69.0
1766 65.0
1767 58.0
1768 78.0
1769 71.0
1770 67.0
1771 77.0
1772 82.0
1773 65.0
1774 67.0
1775 84.0
1776 91.0
1777 86.0
1778 82.0
1779 79.0
1780 72.0
1781 69.0
1782 65.0
1783 60.0
1784 80.0
1785 82.0
1786 73.0
1787 71.0
1788 77.0
1789 62.0
1790 60.0
1791 64.0
1792 75.0
1793 79.0
1794 77.0
1795 62.0
1796 67.0
1797 86.0
1798 75.0
1799 56.0
1800 67.0
1801 75.0
1802 70.0
1803 73.0
1804 66.0
1805 61.0
1806 67.0
1807 63.0
1808 58.0
1809 66.0
1810 82.0
1811 76.0
1812 70.0
1813 73.0
1814 72.0
1815 70.0
1816 84.0
1817 79.0
1818 53.0
1819 61.0
1820 68.0
1821 71.0
1822 70.0
1823 65.0
1824 65.0
1825 67.0
1826 74.0
1827 82.0
1828 68.0
1829 80.0
1830 62.0
1831 65.0
1832 58.0
1833 68.0
1834 64.0
1835 59.0
1836 61.0
1837 57.0
1838 64.0
1839 66.0
1840 73.0
1841 75.0
1842 82.0
1843 78.0
1844 64.0
1845 70.0
1846 78.0
1847 72.0
1848 71.0
1849 65.0
1850 59.0
1851 71.0
1852 59.0
1853 71.0
1854 65.0
1855 59.0
1856 47.0
1857 65.0
1858 68.0
1859 50.0
1860 68.0
1861 66.0
1862 68.0
1863 78.0
1864 50.0
1865 60.0
1866 62.0
1867 60.0
1868 62.0
1869 74.0
1870 69.0
1871 57.0
1872 78.0
1873 86.0
1874 81.0
1875 84.0
1876 77.0
1877 72.0
1878 86.0
1879 82.0
1880 77.0
1881 85.0
1882 84.0
1883 78.0
1884 72.0
1885 75.0
1886 75.0
1887 73.0
1888 87.0
1889 82.0
1890 72.0
1891 80.0
1892 70.0
1893 73.0
1894 73.0
1895 68.0
1896 75.0
1897 78.0
1898 68.0
1899 76.0
1900 78.0
1901 74.0
1902 73.0
1903 76.0
1904 69.0
1905 62.0
1906 74.0
1907 69.0
1908 72.0
1909 68.0
1910 66.0
1911 69.0
1912 67.0
1913 70.0
1914 68.0
1915 64.0
1916 58.0
1917 65.0
1918 73.0
1919 66.0
1920 82.0
1921 76.0
1922 78.0
1923 74.0
1924 87.0
1925 83.0
1926 85.0
1927 79.0
1928 75.0
1929 77.0
1930 80.0
1931 78.0
1932 79.0
1933 77.0
1934 87.0
1935 80.0
1936 77.0
1937 70.0
1938 80.0
1939 78.0
1940 89.0
1941 84.0
1942 79.0
1943 84.0
1944 59.0
1945 67.0
1946 74.0
1947 77.0
1948 76.0
1949 71.0
1950 65.0
1951 67.0
1952 74.0
1953 82.0
1954 63.0
1955 75.0
1956 57.0
1957 60.0
1958 60.0
1959 70.0
1960 66.0
1961 61.0
1962 67.0
1963 75.0
1964 65.0
1965 68.0
1966 68.0
1967 63.0
1968 56.0
1969 59.0
1970 49.0
1971 57.0
1972 71.0
1973 67.0
1974 66.0
1975 69.0
1976 68.0
1977 61.0
1978 73.0
1979 68.0
1980 79.0
1981 81.0
1982 77.0
1983 80.0
1984 62.0
1985 65.0
1986 61.0
1987 63.0
1988 71.0
1989 72.0
1990 80.0
1991 79.0
1992 65.0
1993 77.0
1994 65.0
1995 61.0
1996 82.0
1997 78.0
1998 66.0
1999 78.0
2000 76.0
2001 60.0
2002 63.0
2003 79.0
2004 56.0
2005 66.0
2006 62.0
2007 55.0
2008 72.0
2009 65.0
2010 61.0
2011 71.0
2012 78.0
2013 61.0
2014 56.0
2015 73.0
2016 78.0
2017 74.0
2018 81.0
2019 83.0
2020 76.0
2021 78.0
2022 85.0
2023 81.0
2024 70.0
2025 76.0
2026 79.0
2027 73.0
2028 70.0
2029 66.0
2030 64.0
2031 67.0
2032 59.0
2033 62.0
2034 60.0
2035 56.0
2036 62.0
2037 69.0
2038 71.0
2039 64.0
2040 82.0
2041 84.0
2042 80.0
2043 83.0
2044 73.0
2045 76.0
2046 72.0
2047 74.0
2048 82.0
2049 83.0
2050 79.0
2051 78.0
2052 64.0
2053 68.0
2054 73.0
2055 69.0
2056 79.0
2057 71.0
2058 79.0
2059 77.0
2060 87.0
2061 76.0
2062 81.0
2063 72.0
2064 80.0
2065 74.0
2066 68.0
2067 80.0
2068 66.0
2069 78.0
2070 72.0
2071 66.0
2072 62.0
2073 80.0
2074 76.0
2075 58.0
2076 89.0
2077 83.0
2078 85.0
2079 81.0
2080 83.0
2081 79.0
2082 81.0
2083 75.0
2084 71.0
2085 73.0
2086 85.0
2087 83.0
2088 77.0
2089 89.0
2090 77.0
2091 73.0
2092 85.0
2093 81.0
2094 69.0
2095 81.0
2096 91.0
2097 75.0
2098 69.0
2099 85.0
2100 73.0
2101 77.0
2102 65.0
2103 61.0
2104 83.0
2105 75.0
2106 78.0
2107 64.0
2108 86.0
2109 80.0
2110 68.0
2111 76.0
2112 70.0
2113 68.0
2114 70.0
2115 80.0
2116 56.0
2117 66.0
2118 68.0
2119 66.0
2120 64.0
2121 76.0
2122 69.0
2123 57.0
2124 78.0
2125 76.0
2126 86.0
2127 79.0
2128 72.0
2129 65.0
2130 75.0
2131 73.0
2132 72.0
2133 67.0
2134 77.0
2135 82.0
2136 60.0
2137 70.0
2138 66.0
2139 59.0
2140 68.0
2141 61.0
2142 57.0
2143 67.0
2144 80.0
2145 63.0
2146 61.0
2147 78.0
2148 80.0
2149 78.0
2150 72.0
2151 61.0
2152 84.0
2153 75.0
2154 70.0
2155 56.0
2156 79.0
2157 73.0
2158 67.0
2159 75.0
2160 78.0
2161 73.0
2162 83.0
2163 79.0
2164 82.0
2165 78.0
2166 88.0
2167 83.0
2168 80.0
2169 81.0
2170 83.0
2171 82.0
2172 83.0
2173 78.0
2174 81.0
2175 83.0
2176 80.0
2177 82.0
2178 85.0
2179 80.0
2180 85.0
2181 92.0
2182 88.0
2183 81.0
2184 76.0
2185 72.0
2186 79.0
2187 81.0
2188 69.0
2189 71.0
2190 78.0
2191 74.0
2192 75.0
2193 81.0
2194 76.0
2195 70.0
2196 69.0
2197 74.0
2198 76.0
2199 80.0
2200 77.0
2201 76.0
2202 79.0
2203 83.0
2204 80.0
2205 77.0
2206 79.0
2207 72.0
2208 70.0
2209 65.0
2210 75.0
2211 71.0
2212 63.0
2213 59.0
2214 69.0
2215 64.0
2216 63.0
2217 64.0
2218 67.0
2219 66.0
2220 64.0
2221 59.0
2222 64.0
2223 67.0
2224 52.0
2225 55.0
2226 60.0
2227 55.0
2228 57.0
2229 65.0
2230 61.0
2231 53.0
2232 68.0
2233 64.0
2234 62.0
2235 65.0
2236 63.0
2237 66.0
2238 64.0
2239 60.0
2240 69.0
2241 76.0
2242 71.0
2243 64.0
2244 61.0
2245 55.0
2246 66.0
2247 62.0
2248 67.0
2249 69.0
2250 71.0
2251 64.0
2252 69.0
2253 57.0
2254 68.0
2255 63.0
2256 89.0
2257 84.0
2258 87.0
2259 89.0
2260 80.0
2261 82.0
2262 85.0
2263 80.0
2264 80.0
2265 87.0
2266 90.0
2267 83.0
2268 78.0
2269 73.0
2270 78.0
2271 81.0
2272 71.0
2273 74.0
2274 79.0
2275 74.0
2276 69.0
2277 77.0
2278 79.0
2279 71.0
2280 75.0
2281 77.0
2282 73.0
2283 76.0
2284 77.0
2285 80.0
2286 76.0
2287 78.0
2288 82.0
2289 83.0
2290 78.0
2291 77.0
2292 82.0
2293 80.0
2294 80.0
2295 81.0
2296 87.0
2297 90.0
2298 86.0
2299 77.0
2300 83.0
2301 76.0
2302 76.0
2303 78.0
2304 74.0
2305 70.0
2306 77.0
2307 79.0
2308 72.0
2309 74.0
2310 81.0
2311 77.0
2312 66.0
2313 72.0
2314 75.0
2315 69.0
2316 85.0
2317 81.0
2318 79.0
2319 82.0
2320 74.0
2321 77.0
2322 75.0
2323 71.0
2324 77.0
2325 84.0
2326 86.0
2327 79.0
2328 78.0
2329 80.0
2330 76.0
2331 79.0
2332 69.0
2333 72.0
2334 68.0
2335 70.0
2336 78.0
2337 79.0
2338 75.0
2339 74.0
2340 75.0
2341 79.0
2342 84.0
2343 80.0
2344 90.0
2345 82.0
2346 77.0
2347 75.0
2348 85.0
2349 74.0
2350 79.0
2351 70.0
2352 63.0
2353 68.0
2354 68.0
2355 72.0
2356 62.0
2357 61.0
2358 72.0
2359 66.0
2360 66.0
2361 62.0
2362 71.0
2363 73.0
2364 79.0
2365 77.0
2366 68.0
2367 69.0
2368 72.0
2369 75.0
2370 69.0
2371 73.0
2372 80.0
2373 76.0
2374 79.0
2375 71.0
2376 79.0
2377 83.0
2378 84.0
2379 81.0
2380 77.0
2381 70.0
2382 87.0
2383 80.0
2384 81.0
2385 69.0
2386 85.0
2387 80.0
2388 88.0
2389 79.0
2390 77.0
2391 70.0
2392 74.0
2393 76.0
2394 76.0
2395 74.0
2396 87.0
2397 76.0
2398 80.0
2399 71.0
2400 74.0
2401 76.0
2402 82.0
2403 81.0
2404 65.0
2405 62.0
2406 79.0
2407 62.0
2408 68.0
2409 66.0
2410 70.0
2411 85.0
2412 76.0
2413 64.0
2414 57.0
2415 63.0
2416 56.0
2417 74.0
2418 59.0
2419 64.0
2420 78.0
2421 82.0
2422 75.0
2423 74.0
2424 83.0
2425 85.0
2426 80.0
2427 79.0
2428 82.0
2429 79.0
2430 77.0
2431 79.0
2432 74.0
2433 75.0
2434 76.0
2435 75.0
2436 85.0
2437 81.0
2438 85.0
2439 83.0
2440 84.0
2441 86.0
2442 68.0
2443 62.0
2444 68.0
2445 64.0
2446 65.0
2447 67.0
2448 90.0
2449 73.0
2450 73.0
2451 71.0
2452 75.0
2453 90.0
2454 79.0
2455 81.0
2456 81.0
2457 82.0
2458 64.0
2459 63.0
2460 68.0
2461 68.0
2462 87.0
2463 71.0
2464 85.0
2465 69.0
2466 89.0
2467 87.0
2468 70.0
2469 71.0
2470 85.0
2471 88.0
2472 83.0
2473 71.0
2474 69.0
2475 75.0
2476 65.0
2477 83.0
2478 94.0
2479 90.0
2480 88.0
2481 86.0
2482 76.0
2483 78.0
2484 75.0
2485 75.0
2486 83.0
2487 67.0
2488 89.0
2489 73.0
2490 82.0
2491 86.0
2492 74.0
2493 70.0
2494 92.0
2495 84.0
2496 70.0
2497 75.0
2498 75.0
2499 79.0
2500 69.0
2501 68.0
2502 62.0
2503 56.0
2504 56.0
2505 52.0
2506 61.0
2507 63.0
2508 81.0
2509 79.0
2510 70.0
2511 71.0
2512 74.0
2513 77.0
2514 67.0
2515 71.0
2516 78.0
2517 74.0
2518 77.0
2519 69.0
